c testni_primer_1min.txt 
c barvanje grafa [[1, 5], [0, 2], [1, 3], [2, 4], [3, 5], [0, 4]]
p cnf nekaj nekaj
00 01 0
-00 -01 0
-00 -10 0
-01 -11 0
-00 -50 0
-01 -51 0
10 11 0
-10 -11 0
-10 -00 0
-11 -01 0
-10 -20 0
-11 -21 0
20 21 0
-20 -21 0
-20 -10 0
-21 -11 0
-20 -30 0
-21 -31 0
30 31 0
-30 -31 0
-30 -20 0
-31 -21 0
-30 -40 0
-31 -41 0
40 41 0
-40 -41 0
-40 -30 0
-41 -31 0
-40 -50 0
-41 -51 0
50 51 0
-50 -51 0
-50 -00 0
-51 -01 0
-50 -40 0
-51 -41 0